
Gurobi 7.5.2 (linux64) logging started Sat Jun 23 17:00:13 2018

Changed value of parameter LogFile to result/ilp/simNo_2-n_100-m_40-s_4-minVAF_0.05-cov_2000-k_1-fn_0.10-fp_0.0001-na_0.15.ILP.gurobiSolverLog
   Prev: gurobi.log  Default: 
Changed value of parameter TimeLimit to 86400.0
   Prev: 1e+100  Min: 0.0  Max: 1e+100  Default: 1e+100
Optimize a model with 1265601 rows, 330440 columns and 3489120 nonzeros
Variable types: 0 continuous, 330440 integer (330440 binary)
Coefficient statistics:
  Matrix range     [2e-03, 3e+00]
  Objective range  [7e-01, 1e+01]
  Bounds range     [1e+00, 1e+00]
  RHS range        [2e-01, 2e+00]
Found heuristic solution: objective -19680.58377
Presolve removed 300571 rows and 207691 columns (presolve time = 6s) ...
Presolve removed 300571 rows and 207691 columns (presolve time = 10s) ...
Presolve removed 301633 rows and 207691 columns (presolve time = 15s) ...
Presolve removed 302278 rows and 207691 columns (presolve time = 20s) ...
Presolve removed 302278 rows and 207691 columns (presolve time = 25s) ...
Presolve removed 302278 rows and 207691 columns (presolve time = 30s) ...
Presolve removed 302278 rows and 207691 columns (presolve time = 35s) ...
Presolve removed 302278 rows and 207691 columns (presolve time = 40s) ...
Presolve removed 302278 rows and 207691 columns (presolve time = 45s) ...
Presolve removed 302278 rows and 207691 columns (presolve time = 50s) ...
Presolve removed 302278 rows and 207691 columns (presolve time = 56s) ...
Presolve removed 302278 rows and 207691 columns
Presolve time: 58.85s
Presolved: 963323 rows, 122749 columns, 2669389 nonzeros
Variable types: 0 continuous, 122749 integer (122749 binary)
Presolve removed 0 rows and 0 columns (presolve time = 5s) ...
Presolved: 122749 rows, 1086072 columns, 2792138 nonzeros

Presolve removed 122749 rows and 1086072 columns

Root simplex log...

Iteration    Objective       Primal Inf.    Dual Inf.      Time
       0    1.0238565e+01   0.000000e+00   1.225900e+05     72s
   13518   -2.3971291e+02   0.000000e+00   1.019862e+05     75s
   27042   -3.0342243e+02   0.000000e+00   4.853045e+04     80s
   38802   -3.3362930e+02   0.000000e+00   2.894890e+05     85s
   48798   -3.5939858e+02   0.000000e+00   4.577042e+04     90s
   59970   -3.7774174e+02   0.000000e+00   3.497238e+04     95s
   64845   -3.8451444e+02   0.000000e+00   0.000000e+00     99s
   64845   -3.8451444e+02   0.000000e+00   0.000000e+00    101s

Root relaxation: objective -3.845144e+02, 64845 iterations, 38.35 seconds
Total elapsed time = 165.47s
Total elapsed time = 198.20s
Total elapsed time = 237.48s

    Nodes    |    Current Node    |     Objective Bounds      |     Work
 Expl Unexpl |  Obj  Depth IntInf | Incumbent    BestBd   Gap | It/Node Time

     0     0 -384.51444    0 1890 -19680.584 -384.51444  98.0%     -  245s
H    0     0                    -461.4672242 -384.51444  16.7%     -  371s
     0     0 -387.46092    0 1887 -461.46722 -387.46092  16.0%     -  424s
     0     0 -388.13616    0 1909 -461.46722 -388.13616  15.9%     -  573s
     0     0 -388.32031    0 1899 -461.46722 -388.32031  15.9%     -  584s
     0     0 -392.00342    0 1894 -461.46722 -392.00342  15.1%     -  616s
     0     0 -392.00342    0 1897 -461.46722 -392.00342  15.1%     -  671s
     0     0 -394.62251    0 1908 -461.46722 -394.62251  14.5%     -  712s
     0     0 -394.62251    0 1914 -461.46722 -394.62251  14.5%     -  806s
     0     0 -396.17760    0 1909 -461.46722 -396.17760  14.1%     -  849s
     0     0 -396.17760    0 1910 -461.46722 -396.17760  14.1%     -  934s
     0     0 -398.10100    0 1921 -461.46722 -398.10100  13.7%     -  975s
     0     0 -398.10100    0 1813 -461.46722 -398.10100  13.7%     - 1062s
     0     0 -400.06532    0 1782 -461.46722 -400.06532  13.3%     - 1098s
     0     0 -400.06532    0 1916 -461.46722 -400.06532  13.3%     - 1175s
     0     0 -401.70226    0 1901 -461.46722 -401.70226  13.0%     - 1208s
     0     0 -401.70226    0 1912 -461.46722 -401.70226  13.0%     - 1286s
     0     0 -403.50289    0 1914 -461.46722 -403.50289  12.6%     - 1323s
     0     0 -403.50289    0 1917 -461.46722 -403.50289  12.6%     - 1400s
     0     0 -406.33245    0 1910 -461.46722 -406.33245  11.9%     - 1441s
     0     0 -406.43214    0 1888 -461.46722 -406.43214  11.9%     - 1475s
     0     0 -406.43214    0 1777 -461.46722 -406.43214  11.9%     - 1486s
     0     0 -408.41370    0 1895 -461.46722 -408.41370  11.5%     - 1525s
     0     0 -408.41370    0 1902 -461.46722 -408.41370  11.5%     - 1593s
     0     0 -409.43678    0 1780 -461.46722 -409.43678  11.3%     - 1631s
     0     0 -410.05063    0 1776 -461.46722 -410.05063  11.1%     - 1689s
     0     0 -410.05063    0 1777 -461.46722 -410.05063  11.1%     - 1699s
     0     0 -410.49260    0 1768 -461.46722 -410.49260  11.0%     - 1729s
     0     0 -410.62356    0 1770 -461.46722 -410.62356  11.0%     - 1797s
     0     0 -410.62356    0 1772 -461.46722 -410.62356  11.0%     - 1807s
     0     0 -414.22482    0 1761 -461.46722 -414.22482  10.2%     - 1887s
     0     0 -414.22482    0 1759 -461.46722 -414.22482  10.2%     - 1951s
     0     0 -415.67419    0 1804 -461.46722 -415.67419  9.92%     - 2035s
     0     0 -415.77778    0 1934 -461.46722 -415.77778  9.90%     - 2148s
     0     0 -415.83135    0 1938 -461.46722 -415.83135  9.89%     - 2162s
     0     0 -415.83135    0 1940 -461.46722 -415.83135  9.89%     - 2174s
     0     0 -417.29407    0 1682 -461.46722 -417.29407  9.57%     - 2231s
     0     0 -417.58054    0 1670 -461.46722 -417.58054  9.51%     - 2304s
     0     0 -417.74423    0 1670 -461.46722 -417.74423  9.47%     - 2322s
     0     0 -417.74423    0 1674 -461.46722 -417.74423  9.47%     - 2335s
     0     0 -418.81408    0 1804 -461.46722 -418.81408  9.24%     - 2397s
     0     0 -419.05262    0 1789 -461.46722 -419.05262  9.19%     - 2502s
     0     0 -419.05262    0 1792 -461.46722 -419.05262  9.19%     - 2515s
     0     0 -420.47245    0 1693 -461.46722 -420.47245  8.88%     - 2557s
     0     0 -420.52702    0 1693 -461.46722 -420.52702  8.87%     - 2638s
     0     0 -420.52702    0 1692 -461.46722 -420.52702  8.87%     - 2650s
     0     0 -420.85441    0 1766 -461.46722 -420.85441  8.80%     - 2683s
     0     0 -420.85441    0 1662 -461.46722 -420.85441  8.80%     - 2748s
     0     0 -421.83657    0 1685 -461.46722 -421.83657  8.59%     - 2784s
     0     0 -421.83657    0 1664 -461.46722 -421.83657  8.59%     - 2864s
     0     0 -421.83657    0 1664 -461.46722 -421.83657  8.59%     - 2891s
     0     0 -421.83657    0 1664 -461.46722 -421.83657  8.59%     - 2935s
     0     0 -422.81873    0 1647 -461.46722 -422.81873  8.38%     - 3368s
     0     0 -422.81873    0 1647 -461.46722 -422.81873  8.38%     - 3420s
     0     0 -422.81873    0 1655 -461.46722 -422.81873  8.38%     - 3453s
     0     0 -423.47350    0 1775 -461.46722 -423.47350  8.23%     - 3529s
     0     0 -423.47350    0 1674 -461.46722 -423.47350  8.23%     - 3540s
     0     0 -424.45566    0 1676 -461.46722 -424.45566  8.02%     - 3752s
     0     0 -424.70120    0 1679 -461.46722 -424.70120  7.97%     - 3827s
     0     0 -424.70120    0 1682 -461.46722 -424.70120  7.97%     - 3837s
     0     0 -424.70120    0 1770 -461.46722 -424.70120  7.97%     - 3864s
     0     0 -425.35598    0 1764 -461.46722 -425.35598  7.83%     - 3938s
     0     0 -425.35598    0 1768 -461.46722 -425.35598  7.83%     - 3948s
     0     0 -426.01075    0 1782 -461.46722 -426.01075  7.68%     - 3986s
     0     0 -426.20733    0 1774 -461.46722 -426.20733  7.64%     - 4100s
     0     0 -426.29454    0 1785 -461.46722 -426.29454  7.62%     - 4117s
     0     0 -426.29454    0 1782 -461.46722 -426.29454  7.62%     - 4129s
     0     0 -427.38608    0 1782 -461.46722 -427.38608  7.39%     - 4176s
     0     0 -427.82234    0 1780 -461.46722 -427.82234  7.29%     - 4269s
     0     0 -427.82234    0 1780 -461.46722 -427.82234  7.29%     - 4281s
     0     0 -427.96207    0 1786 -461.46722 -427.96207  7.26%     - 4314s
     0     0 -428.17166    0 1781 -461.46722 -428.17166  7.22%     - 4433s
     0     0 -428.17166    0 1774 -461.46722 -428.17166  7.22%     - 4446s
     0     0 -428.48589    0 1786 -461.46722 -428.48589  7.15%     - 4478s
     0     0 -428.62056    0 1784 -461.46722 -428.62056  7.12%     - 4516s
     0     0 -428.68232    0 1791 -461.46722 -428.68232  7.10%     - 4529s
     0     0 -428.68232    0 1795 -461.46722 -428.68232  7.10%     - 4539s
     0     0 -429.46805    0 1785 -461.46722 -429.46805  6.93%     - 4576s
     0     0 -429.46805    0 1787 -461.46722 -429.46805  6.93%     - 4659s
     0     0 -429.90237    0 1794 -461.46722 -429.90237  6.84%     - 4699s
     0     0 -430.13598    0 1796 -461.46722 -430.13598  6.79%     - 4795s
     0     0 -430.13598    0 1800 -461.46722 -430.13598  6.79%     - 4809s
     0     0 -431.11814    0 1784 -461.46722 -431.11814  6.58%     - 4858s
     0     0 -431.44553    0 1775 -461.46722 -431.44553  6.51%     - 4923s
     0     0 -431.44553    0 1773 -461.46722 -431.44553  6.51%     - 4933s
     0     0 -432.10030    0 1792 -461.46722 -432.10030  6.36%     - 4979s
     0     0 -432.10030    0 1783 -461.46722 -432.10030  6.36%     - 4993s
     0     0 -432.10030    0 1773 -461.46722 -432.10030  6.36%     - 5019s
     0     0 -432.10030    0 1790 -461.46722 -432.10030  6.36%     - 5032s
     0     0 -432.75508    0 1771 -461.46722 -432.75508  6.22%     - 5286s
     0     0 -432.94216    0 1782 -461.46722 -432.94216  6.18%     - 5341s
     0     0 -433.08246    0 1777 -461.46722 -433.08246  6.15%     - 5356s
     0     0 -433.08246    0 1778 -461.46722 -433.08246  6.15%     - 5365s
     0     0 -433.08246    0 1781 -461.46722 -433.08246  6.15%     - 5388s
     0     0 -433.08246    0 1781 -461.46722 -433.08246  6.15%     - 5444s
     0     0 -433.08246    0 1788 -461.46722 -433.08246  6.15%     - 5466s
     0     0 -433.08246    0 1787 -461.46722 -433.08246  6.15%     - 5522s
     0     0 -433.08246    0 1783 -461.46722 -433.08246  6.15%     - 5672s
     0     0 -433.08246    0 1783 -461.46722 -433.08246  6.15%     - 5713s
     0     2 -433.08502    0 1783 -461.46722 -433.08502  6.15%     - 5842s
     1     3 -440.51445    1  996 -461.46722 -433.08926  6.15%  6913 5929s
     2     4 -441.38748    2 1082 -461.46722 -433.08926  6.15%  3814 5940s
     3     5 -442.32526    3 1164 -461.46722 -433.08926  6.15%  2727 5949s
     4     6 -443.02938    4 1082 -461.46722 -433.08926  6.15%  2198 5959s
     5     7 -457.12512    4  644 -461.46722 -433.08926  6.15%  3368 6048s
     6     8 -443.84288    5 1155 -461.46722 -433.08926  6.15%  2957 6066s
     7     9 -444.04830    6 1158 -461.46722 -433.08926  6.15%  2609 6075s
     8    10 -453.11885    7  566 -461.46722 -433.08926  6.15%  2946 6126s
     9    11 -444.93418    7 1062 -461.46722 -433.08926  6.15%  2665 6133s
    10    12 -445.02512    8 1064 -461.46722 -433.08926  6.15%  2411 6136s
    11    13 -445.64351    9 1062 -461.46722 -433.08926  6.15%  2212 6144s
    12    14 -446.40742    9  905 -461.46722 -433.08926  6.15%  2080 6153s
    13    15 -446.73480   10  908 -461.46722 -433.08926  6.15%  1981 6165s
    14    14     cutoff   10      -461.46722 -433.08926  6.15%  2154 6210s
    15    15 -447.45850   11  912 -461.46722 -433.08926  6.15%  2056 6226s
    16    16 -448.04435   12  907 -461.46722 -433.08926  6.15%  1942 6232s
    17    17 -457.30606   12  649 -461.46722 -433.08926  6.15%  2058 6273s
    18    18 -449.02651   13  900 -461.46722 -433.08926  6.15%  1969 6280s
    20    20 -450.00868   15  895 -461.46722 -433.08926  6.15%  1799 6291s
    21    21 -450.99084   16  896 -461.46722 -433.08926  6.15%  1718 6296s
    22    20     cutoff   16      -461.46722 -433.08926  6.15%  1678 6312s
    23    21 -451.31822   17  897 -461.46722 -433.08926  6.15%  1613 6318s
    24    20     cutoff   17      -461.46722 -433.08926  6.15%  1573 6327s
    25    21 -451.97300   18  895 -461.46722 -433.08926  6.15%  1519 6332s
    27    23 -453.93732   20  889 -461.46722 -433.08926  6.15%  1411 6337s
    28    24 -454.91948   21  886 -461.46722 -433.08926  6.15%  1367 6340s
    30    24 -455.41056   22  884 -461.46722 -433.08926  6.15%  1297 6346s
    31    23     cutoff   22      -461.46722 -433.08926  6.15%  1264 6350s
    34    24     cutoff   24      -461.46722 -433.08926  6.15%  1159 6355s
    37    27 -458.84813   27  886 -461.46722 -433.08926  6.15%  1070 6360s
    39    29 -460.48506   29  872 -461.46722 -433.08926  6.15%  1022 6367s
    43    27 -440.75364    1 1902 -461.46722 -440.51445  4.54%  1083 6454s
    44    28 -447.19889    2 1998 -461.46722 -440.51445  4.54%  1133 6522s
    45    29 -449.91562    3 1215 -461.46722 -440.51445  4.54%  1123 6537s
    46    30 -451.87995    4 1183 -461.46722 -440.51445  4.54%  1104 6547s
    47    29     cutoff    4      -461.46722 -440.51445  4.54%  1104 6560s
    48    30 -454.82643    5 1106 -461.46722 -440.51445  4.54%  1092 6571s
    49    31 -457.28183    6 1093 -461.46722 -440.51445  4.54%  1075 6577s
    50    30     cutoff    6      -461.46722 -440.51445  4.54%  1059 6580s
    52    32 -458.75508    8  303 -461.46722 -440.51445  4.54%  1020 6585s
*   55    32               9    -459.2461561 -440.51445  4.08%   968 6590s
    60    29     cutoff    2      -459.24616 -440.78373  4.02%  1003 6674s
    61    28     cutoff    2      -459.24616 -441.76943  3.81%  1119 6753s
    62    29 -453.75223    3  619 -459.24616 -443.03860  3.53%  1141 6791s
    64    31 -455.08318    5  519 -459.24616 -443.03860  3.53%  1108 6799s
    65    30     cutoff    5      -459.24616 -443.03860  3.53%  1094 6801s
    67    32 -455.08318    7  439 -459.24616 -443.03860  3.53%  1062 6806s
    69    32     cutoff    8      -459.24616 -443.03860  3.53%  1032 6810s
    71    30     cutoff    6      -459.24616 -443.03860  3.53%  1009 6815s
    72    31 -457.04750    9  450 -459.24616 -443.03860  3.53%   998 6821s
    74    31 -459.01182   10  423 -459.24616 -443.03860  3.53%   974 6827s
    75    32 -459.01182   11  400 -459.24616 -443.03860  3.53%   961 6830s
    80    27     cutoff    5      -459.24616 -443.84288  3.35%   930 6876s
    81    26     cutoff    6      -459.24616 -444.93418  3.12%   938 6905s
    82    27 -452.06787    8  987 -459.24616 -445.64923  2.96%   932 6919s
    83    28 -453.28255    9  974 -459.24616 -445.64923  2.96%   923 6923s
    84    29 -456.22903   10  949 -459.24616 -445.64923  2.96%   915 6929s
    85    30 -456.22903   11  897 -459.24616 -445.64923  2.96%   905 6930s
    86    31 -456.55642   12  907 -459.24616 -445.64923  2.96%   900 6940s
    87    32 -457.28012   13  911 -459.24616 -445.64923  2.96%   896 6946s
    89    34 -458.84813   15  897 -459.24616 -445.64923  2.96%   881 6951s
    94    31 -448.37174   10  904 -459.24616 -445.74340  2.94%   842 6963s
    95    32 -448.69913   11  907 -459.24616 -445.74340  2.94%   836 6968s
    96    33 -449.42282   12  912 -459.24616 -445.74340  2.94%   833 6976s
    97    34 -450.00868   13  904 -459.24616 -445.74340  2.94%   827 6981s
    98    35 -450.54068   14  902 -459.24616 -445.74340  2.94%   821 6986s
   100    37 -451.23638   16  901 -459.24616 -445.74340  2.94%   806 6990s
   103    40 -453.80637   19  891 -459.24616 -445.74340  2.94%   786 6997s
   104    41 -454.39566   20  891 -459.24616 -445.74340  2.94%   781 7001s
   106    43 -455.71457   22  805 -459.24616 -445.74340  2.94%   769 7006s
   108    45 -456.88380   24  661 -459.24616 -445.74340  2.94%   757 7013s
   110    47 -458.19335   26  725 -459.24616 -445.74340  2.94%   745 7016s
   115    44     cutoff   26      -459.24616 -445.74340  2.94%   715 7020s
   116    45 -446.40742   10 1045 -459.24616 -446.40742  2.80%   711 7026s
   117    46 -447.40127   11 1147 -459.24616 -446.40742  2.80%   717 7046s
   118    47 -448.08156   12 1151 -459.24616 -446.40742  2.80%   715 7053s
   119    46     cutoff   13      -459.24616 -446.40742  2.80%   766 7121s
   120    47 -448.54713   13 1157 -459.24616 -446.40742  2.80%   764 7130s
   121    48 -449.09577   14 1156 -459.24616 -446.40742  2.80%   762 7140s
   122    49 -449.78652   15 1136 -459.24616 -446.40742  2.80%   760 7148s
   123    50 -450.54068   16  986 -459.24616 -446.40742  2.80%   760 7159s
   124    51 -450.90899   17 1141 -459.24616 -446.40742  2.80%   759 7168s
   125    52 -451.75084   18 1141 -459.24616 -446.40742  2.80%   760 7180s
   126    53 -452.38223   19 1120 -459.24616 -446.40742  2.80%   759 7191s
   127    54 -452.87331   20 1116 -459.24616 -446.40742  2.80%   756 7198s
   128    55 -453.36439   21 1117 -459.24616 -446.40742  2.80%   752 7203s
   129    56 -454.34655   22 1124 -459.24616 -446.40742  2.80%   752 7220s
   131    58 -455.32872   24 1130 -459.24616 -446.40742  2.80%   744 7229s
   132    59 -456.31088   25 1128 -459.24616 -446.40742  2.80%   743 7240s
   133    60 -456.55642   26 1132 -459.24616 -446.40742  2.80%   741 7249s
   134    61 -457.29304   27  956 -459.24616 -446.40742  2.80%   739 7257s
   135    62 -458.02966   28 1130 -459.24616 -446.40742  2.80%   736 7263s
   136    63 -458.43889   29 1133 -459.24616 -446.40742  2.80%   733 7269s
   137    62     cutoff   30      -459.24616 -446.40742  2.80%   731 7273s
   139    60     cutoff   29      -459.24616 -446.40742  2.80%   722 7277s
   140    59     cutoff   28      -459.24616 -446.40742  2.80%   720 7281s
   141    60 -455.66780   11 1063 -459.24616 -446.73480  2.72%   740 7318s
   142    61 -456.34808   12 1059 -459.24616 -446.73480  2.72%   740 7328s
   143    60     cutoff   12      -459.24616 -446.73480  2.72%   737 7332s
   144    61 -457.02538   13 1062 -459.24616 -446.73480  2.72%   739 7342s
   145    62 -457.53858   14 1056 -459.24616 -446.73480  2.72%   736 7349s
   146    61     cutoff   14      -459.24616 -446.73480  2.72%   733 7352s
   147    60     cutoff   13      -459.24616 -446.73480  2.72%   731 7357s
   148    59     cutoff   15      -459.24616 -446.73480  2.72%   729 7360s
   149    60 -457.82504   15 1074 -459.24616 -446.73480  2.72%   727 7367s
   150    61 -458.80720   16 1071 -459.24616 -446.73480  2.72%   723 7370s
   152    59     cutoff   17      -459.24616 -446.73480  2.72%   716 7375s
   154    57     cutoff   11      -459.24616 -447.19941  2.62%   723 7402s
   155    58 -449.68509    3 2035 -459.24616 -447.41339  2.58%   724 7419s
   156    59 -455.76605    4 1324 -459.24616 -447.41339  2.58%   806 7562s
   157    58     cutoff    5      -459.24616 -447.41339  2.58%   822 7600s
   158    57     cutoff    4      -459.24616 -447.41339  2.58%   820 7608s
   159    58 -456.15158    5 2130 -459.24616 -447.41339  2.58%   828 7632s
   160    59 -456.98825    6 1217 -459.24616 -447.41339  2.58%   825 7639s
   161    58     cutoff    7      -459.24616 -447.41339  2.58%   993 8144s
   162    57     cutoff    6      -459.24616 -447.41339  2.58%  1053 8299s
   163    56     cutoff    7      -459.24616 -447.41339  2.58%  1051 8307s
   164    55     cutoff   12      -459.24616 -448.05580  2.44%  1062 8337s
   165    54     cutoff   13      -459.24616 -448.38698  2.36%  1085 8377s
   166    53     cutoff   11      -459.24616 -448.54713  2.33%  1093 8402s
   167    52     cutoff   14      -459.24616 -448.69913  2.30%  1118 8445s
   168    51     cutoff   12      -459.24616 -449.02651  2.23%  1117 8459s
   169    50     cutoff   14      -459.24616 -449.06581  2.22%  1115 8469s
   170    49     cutoff   15      -459.24616 -449.10064  2.21%  1113 8484s
   171    48     cutoff   15      -459.24616 -449.47452  2.13%  1112 8502s
   172    47     cutoff   13      -459.24616 -449.79271  2.06%  1132 8541s
   173    46     cutoff   16      -459.24616 -450.02393  2.01%  1138 8570s
   174    45     cutoff   14      -459.24616 -450.54068  1.90%  1192 8667s
   175    44     cutoff   17      -459.24616 -450.54068  1.90%  1190 8679s
   176    43     cutoff   15      -459.24616 -450.54068  1.90%  1187 8686s
   177    42     cutoff   16      -459.24616 -450.92147  1.81%  1183 8692s
   178    41     cutoff   18      -459.24616 -451.23638  1.74%  1182 8703s
   179    40     cutoff   17      -459.24616 -451.32190  1.73%  1180 8712s
   180    39     cutoff   18      -459.24616 -451.87995  1.60%  1180 8729s
   181    38     cutoff    5      -459.24616 -452.17177  1.54%  1176 8737s
   182    37     cutoff   19      -459.24616 -452.21854  1.53%  1179 8757s
   184    35     cutoff   20      -459.24616 -452.80152  1.40%  1175 8775s
   185    36 -458.24411    9  984 -459.24616 -452.87331  1.39%  1178 8796s
   186    37 -458.92439   10  998 -459.24616 -452.87331  1.39%  1176 8804s
   187    36     cutoff   11      -459.24616 -452.87331  1.39%  1171 8806s
   190    33     cutoff   21      -459.24616 -452.95516  1.37%  1161 8821s
   191    32     cutoff   19      -459.24616 -452.95516  1.37%  1159 8828s
   192    31     cutoff   20      -459.24616 -453.14508  1.33%  1154 8832s
   193    32 -456.06534    8  538 -459.24616 -453.19693  1.32%  1156 8848s
   194    31     cutoff    9      -459.24616 -453.19693  1.32%  1152 8852s
   195    32 -457.04750    9  556 -459.24616 -453.19693  1.32%  1148 8858s
   196    31     cutoff   10      -459.24616 -453.19693  1.32%  1143 8862s
   197    32 -458.02966   10  540 -459.24616 -453.19693  1.32%  1139 8868s
   198    33 -458.66304   11  564 -459.24616 -453.19693  1.32%  1134 8871s
   201    32     cutoff   11      -459.24616 -453.19693  1.32%  1118 8875s
   204    31 -459.01182    8  461 -459.24616 -453.52317  1.25%  1114 8897s
   205    32 -459.01182    9  522 -459.24616 -453.52317  1.25%  1109 8900s
   209    28     cutoff   22      -459.24616 -453.53354  1.24%  1095 8920s
   210    29 -455.01302   10  990 -459.24616 -453.77363  1.19%  1096 8930s
   211    30 -455.69331   11  995 -459.24616 -453.77363  1.19%  1093 8936s
   212    31 -456.30517   12 1000 -459.24616 -453.77363  1.19%  1091 8944s
   213    32 -457.12935   13  998 -459.24616 -453.77363  1.19%  1087 8948s
   214    33 -457.29304   14  917 -459.24616 -453.77363  1.19%  1084 8953s
   215    34 -458.09981   15  922 -459.24616 -453.77363  1.19%  1081 8961s
   216    35 -458.68443   16  912 -459.24616 -453.77363  1.19%  1078 8967s
   218    33     cutoff   17      -459.24616 -453.77363  1.19%  1071 8973s
   220    31     cutoff   15      -459.24616 -453.77363  1.19%  1064 8977s
   221    30     cutoff   19      -459.24616 -453.80637  1.18%  1060 8981s
   222    29     cutoff   20      -459.24616 -453.81108  1.18%  1058 8988s
   223    28     cutoff    4      -459.24616 -454.34655  1.07%  1055 8992s
   224    27     cutoff   23      -459.24616 -454.34655  1.07%  1052 9000s
   225    26     cutoff   24      -459.24616 -454.39566  1.06%  1050 9006s
   227    24     cutoff   11      -459.24616 -455.05869  0.91%  1042 9012s
   228    23     cutoff   22      -459.24616 -455.33873  0.85%  1039 9015s
   229    22     cutoff   25      -459.24616 -455.41056  0.84%  1038 9022s
   231    20     cutoff   12      -459.24616 -455.71457  0.77%  1031 9026s
   233    20 -456.97734   11  991 -459.24616 -456.23673  0.66%  1025 9032s
   234    21 -457.65763   12 1000 -459.24616 -456.23673  0.66%  1023 9036s
   236    21 -458.09514   13  986 -459.24616 -456.23673  0.66%  1016 9041s
   239    20 -458.84813   14  918 -459.24616 -456.23673  0.66%  1006 9049s
   241    18     cutoff   15      -459.24616 -456.23673  0.66%   999 9050s
   243    16     cutoff   13      -459.24616 -456.31088  0.64%   994 9058s
   244    15     cutoff   26      -459.24616 -456.46888  0.60%   991 9061s
   247    12     cutoff   24      -459.24616 -456.56299  0.58%   980 9065s
   249    10     cutoff   25      -459.24616 -457.04750  0.48%   975 9070s
   251    10 -457.53858    5  572 -459.24616 -457.12935  0.46%   969 9078s
   252     9     cutoff    6      -459.24616 -457.12935  0.46%   965 9080s
   254    11 -459.13459    7  550 -459.24616 -457.12935  0.46%   959 9090s
   259     6     cutoff    5      -459.24616 -457.31574  0.42%   943 9098s
   260     7 -457.46107   13  640 -459.24616 -457.40356  0.40%   940 9103s
   261     8 -458.19335   14  450 -459.24616 -457.40356  0.40%   937 9109s
   262     9 -458.71717   15  407 -459.24616 -457.40356  0.40%   934 9114s
   264     7     cutoff   16      -459.24616 -457.40356  0.40%   927 9115s
   268     3     cutoff   27      -459.24616 -457.89289  0.29%   915 9120s
   271     1 -458.75508    9  225 -459.24616 -458.75508  0.11%   905 9128s
   272     0     cutoff   10      -459.24616 -459.24616  0.00%   902 9130s

Cutting planes:
  Gomory: 1
  MIR: 2
  Zero half: 743

Explored 273 nodes (414380 simplex iterations) in 9131.88 seconds
Thread count was 1 (of 80 available processors)

Solution count 3: -459.246 -461.467 -19680.6 

Optimal solution found (tolerance 1.00e-04)
Best objective -4.592461561439e+02, best bound -4.592461561439e+02, gap 0.0000%
